Minimize

  y_0

Subject To


   a0: x$_0 = 1 -> y_0 - y_1 >= 1
   a1: x$_1 = 1 -> y_1 - y_0 >= 1
   a2: x$_0 + x$_1 = 1
   a3: x$_2 = 1 -> y_0 - y_2 >= 1
   a4: x$_3 = 1 -> y_2 - y_0 >= 1
   a5: x$_2 + x$_3 = 1
   a6: x$_4 = 1 -> y_0 - y_3 >= 1
   a7: x$_5 = 1 -> y_3 - y_0 >= 1
   a8: x$_4 + x$_5 = 1
   a9: x$_6 = 1 -> y_0 - y_4 >= 1
   a10: x$_7 = 1 -> y_4 - y_0 >= 1
   a11: x$_6 + x$_7 = 1
   a12: x$_8 = 1 -> y_0 - y_5 >= 1
   a13: x$_9 = 1 -> y_5 - y_0 >= 1
   a14: x$_8 + x$_9 = 1
   a15: x$_10 = 1 -> y_0 - y_6 >= 1
   a16: x$_11 = 1 -> y_6 - y_0 >= 1
   a17: x$_10 + x$_11 = 1
   a18: x$_12 = 1 -> y_0 - y_7 >= 1
   a19: x$_13 = 1 -> y_7 - y_0 >= 1
   a20: x$_12 + x$_13 = 1
   a21: x$_14 = 1 -> y_0 - y_8 >= 1
   a22: x$_15 = 1 -> y_8 - y_0 >= 1
   a23: x$_14 + x$_15 = 1
   a24: x$_16 = 1 -> y_0 - y_9 >= 1
   a25: x$_17 = 1 -> y_9 - y_0 >= 1
   a26: x$_16 + x$_17 = 1
   a27: x$_18 = 1 -> y_1 - y_2 >= 1
   a28: x$_19 = 1 -> y_2 - y_1 >= 1
   a29: x$_18 + x$_19 = 1
   a30: x$_20 = 1 -> y_1 - y_3 >= 1
   a31: x$_21 = 1 -> y_3 - y_1 >= 1
   a32: x$_20 + x$_21 = 1
   a33: x$_22 = 1 -> y_1 - y_4 >= 1
   a34: x$_23 = 1 -> y_4 - y_1 >= 1
   a35: x$_22 + x$_23 = 1
   a36: x$_24 = 1 -> y_1 - y_5 >= 1
   a37: x$_25 = 1 -> y_5 - y_1 >= 1
   a38: x$_24 + x$_25 = 1
   a39: x$_26 = 1 -> y_1 - y_6 >= 1
   a40: x$_27 = 1 -> y_6 - y_1 >= 1
   a41: x$_26 + x$_27 = 1
   a42: x$_28 = 1 -> y_1 - y_7 >= 1
   a43: x$_29 = 1 -> y_7 - y_1 >= 1
   a44: x$_28 + x$_29 = 1
   a45: x$_30 = 1 -> y_1 - y_8 >= 1
   a46: x$_31 = 1 -> y_8 - y_1 >= 1
   a47: x$_30 + x$_31 = 1
   a48: x$_32 = 1 -> y_1 - y_9 >= 1
   a49: x$_33 = 1 -> y_9 - y_1 >= 1
   a50: x$_32 + x$_33 = 1
   a51: x$_34 = 1 -> y_2 - y_3 >= 1
   a52: x$_35 = 1 -> y_3 - y_2 >= 1
   a53: x$_34 + x$_35 = 1
   a54: x$_36 = 1 -> y_2 - y_4 >= 1
   a55: x$_37 = 1 -> y_4 - y_2 >= 1
   a56: x$_36 + x$_37 = 1
   a57: x$_38 = 1 -> y_2 - y_5 >= 1
   a58: x$_39 = 1 -> y_5 - y_2 >= 1
   a59: x$_38 + x$_39 = 1
   a60: x$_40 = 1 -> y_2 - y_6 >= 1
   a61: x$_41 = 1 -> y_6 - y_2 >= 1
   a62: x$_40 + x$_41 = 1
   a63: x$_42 = 1 -> y_2 - y_7 >= 1
   a64: x$_43 = 1 -> y_7 - y_2 >= 1
   a65: x$_42 + x$_43 = 1
   a66: x$_44 = 1 -> y_2 - y_8 >= 1
   a67: x$_45 = 1 -> y_8 - y_2 >= 1
   a68: x$_44 + x$_45 = 1
   a69: x$_46 = 1 -> y_2 - y_9 >= 1
   a70: x$_47 = 1 -> y_9 - y_2 >= 1
   a71: x$_46 + x$_47 = 1
   a72: x$_48 = 1 -> y_3 - y_4 >= 1
   a73: x$_49 = 1 -> y_4 - y_3 >= 1
   a74: x$_48 + x$_49 = 1
   a75: x$_50 = 1 -> y_3 - y_5 >= 1
   a76: x$_51 = 1 -> y_5 - y_3 >= 1
   a77: x$_50 + x$_51 = 1
   a78: x$_52 = 1 -> y_3 - y_6 >= 1
   a79: x$_53 = 1 -> y_6 - y_3 >= 1
   a80: x$_52 + x$_53 = 1
   a81: x$_54 = 1 -> y_3 - y_7 >= 1
   a82: x$_55 = 1 -> y_7 - y_3 >= 1
   a83: x$_54 + x$_55 = 1
   a84: x$_56 = 1 -> y_3 - y_8 >= 1
   a85: x$_57 = 1 -> y_8 - y_3 >= 1
   a86: x$_56 + x$_57 = 1
   a87: x$_58 = 1 -> y_3 - y_9 >= 1
   a88: x$_59 = 1 -> y_9 - y_3 >= 1
   a89: x$_58 + x$_59 = 1
   a90: x$_60 = 1 -> y_4 - y_5 >= 1
   a91: x$_61 = 1 -> y_5 - y_4 >= 1
   a92: x$_60 + x$_61 = 1
   a93: x$_62 = 1 -> y_4 - y_6 >= 1
   a94: x$_63 = 1 -> y_6 - y_4 >= 1
   a95: x$_62 + x$_63 = 1
   a96: x$_64 = 1 -> y_4 - y_7 >= 1
   a97: x$_65 = 1 -> y_7 - y_4 >= 1
   a98: x$_64 + x$_65 = 1
   a99: x$_66 = 1 -> y_4 - y_8 >= 1
   a100: x$_67 = 1 -> y_8 - y_4 >= 1
   a101: x$_66 + x$_67 = 1
   a102: x$_68 = 1 -> y_4 - y_9 >= 1
   a103: x$_69 = 1 -> y_9 - y_4 >= 1
   a104: x$_68 + x$_69 = 1
   a105: x$_70 = 1 -> y_5 - y_6 >= 1
   a106: x$_71 = 1 -> y_6 - y_5 >= 1
   a107: x$_70 + x$_71 = 1
   a108: x$_72 = 1 -> y_5 - y_7 >= 1
   a109: x$_73 = 1 -> y_7 - y_5 >= 1
   a110: x$_72 + x$_73 = 1
   a111: x$_74 = 1 -> y_5 - y_8 >= 1
   a112: x$_75 = 1 -> y_8 - y_5 >= 1
   a113: x$_74 + x$_75 = 1
   a114: x$_76 = 1 -> y_5 - y_9 >= 1
   a115: x$_77 = 1 -> y_9 - y_5 >= 1
   a116: x$_76 + x$_77 = 1
   a117: x$_78 = 1 -> y_6 - y_7 >= 1
   a118: x$_79 = 1 -> y_7 - y_6 >= 1
   a119: x$_78 + x$_79 = 1
   a120: x$_80 = 1 -> y_6 - y_8 >= 1
   a121: x$_81 = 1 -> y_8 - y_6 >= 1
   a122: x$_80 + x$_81 = 1
   a123: x$_82 = 1 -> y_6 - y_9 >= 1
   a124: x$_83 = 1 -> y_9 - y_6 >= 1
   a125: x$_82 + x$_83 = 1
   a126: x$_84 = 1 -> y_7 - y_8 >= 1
   a127: x$_85 = 1 -> y_8 - y_7 >= 1
   a128: x$_84 + x$_85 = 1
   a129: x$_86 = 1 -> y_7 - y_9 >= 1
   a130: x$_87 = 1 -> y_9 - y_7 >= 1
   a131: x$_86 + x$_87 = 1
   a132: x$_88 = 1 -> y_8 - y_9 >= 1
   a133: x$_89 = 1 -> y_9 - y_8 >= 1
   a134: x$_88 + x$_89 = 1

   b0: y_0 - d2_0 = 0
   b1: y_1 - d2_1 = -1
   b2: y_2 - d2_2 = -2
   b3: y_3 - d2_3 = -3
   b4: y_4 - d2_4 = -4
   b5: y_5 - d2_5 = -5
   b6: y_6 - d2_6 = -6
   b7: y_7 - d2_7 = -7
   b8: y_8 - d2_8 = -8
   b9: y_9 - d2_9 = -9

   c0: x$_90 = 1 -> d2_0 - d2_1 >= 1
   c1: x$_91 = 1 -> d2_1 - d2_0 >= 1
   c2: x$_90 + x$_91 = 1
   c3: x$_92 = 1 -> d2_0 - d2_2 >= 1
   c4: x$_93 = 1 -> d2_2 - d2_0 >= 1
   c5: x$_92 + x$_93 = 1
   c6: x$_94 = 1 -> d2_0 - d2_3 >= 1
   c7: x$_95 = 1 -> d2_3 - d2_0 >= 1
   c8: x$_94 + x$_95 = 1
   c9: x$_96 = 1 -> d2_0 - d2_4 >= 1
   c10: x$_97 = 1 -> d2_4 - d2_0 >= 1
   c11: x$_96 + x$_97 = 1
   c12: x$_98 = 1 -> d2_0 - d2_5 >= 1
   c13: x$_99 = 1 -> d2_5 - d2_0 >= 1
   c14: x$_98 + x$_99 = 1
   c15: x$_100 = 1 -> d2_0 - d2_6 >= 1
   c16: x$_101 = 1 -> d2_6 - d2_0 >= 1
   c17: x$_100 + x$_101 = 1
   c18: x$_102 = 1 -> d2_0 - d2_7 >= 1
   c19: x$_103 = 1 -> d2_7 - d2_0 >= 1
   c20: x$_102 + x$_103 = 1
   c21: x$_104 = 1 -> d2_0 - d2_8 >= 1
   c22: x$_105 = 1 -> d2_8 - d2_0 >= 1
   c23: x$_104 + x$_105 = 1
   c24: x$_106 = 1 -> d2_0 - d2_9 >= 1
   c25: x$_107 = 1 -> d2_9 - d2_0 >= 1
   c26: x$_106 + x$_107 = 1
   c27: x$_108 = 1 -> d2_1 - d2_2 >= 1
   c28: x$_109 = 1 -> d2_2 - d2_1 >= 1
   c29: x$_108 + x$_109 = 1
   c30: x$_110 = 1 -> d2_1 - d2_3 >= 1
   c31: x$_111 = 1 -> d2_3 - d2_1 >= 1
   c32: x$_110 + x$_111 = 1
   c33: x$_112 = 1 -> d2_1 - d2_4 >= 1
   c34: x$_113 = 1 -> d2_4 - d2_1 >= 1
   c35: x$_112 + x$_113 = 1
   c36: x$_114 = 1 -> d2_1 - d2_5 >= 1
   c37: x$_115 = 1 -> d2_5 - d2_1 >= 1
   c38: x$_114 + x$_115 = 1
   c39: x$_116 = 1 -> d2_1 - d2_6 >= 1
   c40: x$_117 = 1 -> d2_6 - d2_1 >= 1
   c41: x$_116 + x$_117 = 1
   c42: x$_118 = 1 -> d2_1 - d2_7 >= 1
   c43: x$_119 = 1 -> d2_7 - d2_1 >= 1
   c44: x$_118 + x$_119 = 1
   c45: x$_120 = 1 -> d2_1 - d2_8 >= 1
   c46: x$_121 = 1 -> d2_8 - d2_1 >= 1
   c47: x$_120 + x$_121 = 1
   c48: x$_122 = 1 -> d2_1 - d2_9 >= 1
   c49: x$_123 = 1 -> d2_9 - d2_1 >= 1
   c50: x$_122 + x$_123 = 1
   c51: x$_124 = 1 -> d2_2 - d2_3 >= 1
   c52: x$_125 = 1 -> d2_3 - d2_2 >= 1
   c53: x$_124 + x$_125 = 1
   c54: x$_126 = 1 -> d2_2 - d2_4 >= 1
   c55: x$_127 = 1 -> d2_4 - d2_2 >= 1
   c56: x$_126 + x$_127 = 1
   c57: x$_128 = 1 -> d2_2 - d2_5 >= 1
   c58: x$_129 = 1 -> d2_5 - d2_2 >= 1
   c59: x$_128 + x$_129 = 1
   c60: x$_130 = 1 -> d2_2 - d2_6 >= 1
   c61: x$_131 = 1 -> d2_6 - d2_2 >= 1
   c62: x$_130 + x$_131 = 1
   c63: x$_132 = 1 -> d2_2 - d2_7 >= 1
   c64: x$_133 = 1 -> d2_7 - d2_2 >= 1
   c65: x$_132 + x$_133 = 1
   c66: x$_134 = 1 -> d2_2 - d2_8 >= 1
   c67: x$_135 = 1 -> d2_8 - d2_2 >= 1
   c68: x$_134 + x$_135 = 1
   c69: x$_136 = 1 -> d2_2 - d2_9 >= 1
   c70: x$_137 = 1 -> d2_9 - d2_2 >= 1
   c71: x$_136 + x$_137 = 1
   c72: x$_138 = 1 -> d2_3 - d2_4 >= 1
   c73: x$_139 = 1 -> d2_4 - d2_3 >= 1
   c74: x$_138 + x$_139 = 1
   c75: x$_140 = 1 -> d2_3 - d2_5 >= 1
   c76: x$_141 = 1 -> d2_5 - d2_3 >= 1
   c77: x$_140 + x$_141 = 1
   c78: x$_142 = 1 -> d2_3 - d2_6 >= 1
   c79: x$_143 = 1 -> d2_6 - d2_3 >= 1
   c80: x$_142 + x$_143 = 1
   c81: x$_144 = 1 -> d2_3 - d2_7 >= 1
   c82: x$_145 = 1 -> d2_7 - d2_3 >= 1
   c83: x$_144 + x$_145 = 1
   c84: x$_146 = 1 -> d2_3 - d2_8 >= 1
   c85: x$_147 = 1 -> d2_8 - d2_3 >= 1
   c86: x$_146 + x$_147 = 1
   c87: x$_148 = 1 -> d2_3 - d2_9 >= 1
   c88: x$_149 = 1 -> d2_9 - d2_3 >= 1
   c89: x$_148 + x$_149 = 1
   c90: x$_150 = 1 -> d2_4 - d2_5 >= 1
   c91: x$_151 = 1 -> d2_5 - d2_4 >= 1
   c92: x$_150 + x$_151 = 1
   c93: x$_152 = 1 -> d2_4 - d2_6 >= 1
   c94: x$_153 = 1 -> d2_6 - d2_4 >= 1
   c95: x$_152 + x$_153 = 1
   c96: x$_154 = 1 -> d2_4 - d2_7 >= 1
   c97: x$_155 = 1 -> d2_7 - d2_4 >= 1
   c98: x$_154 + x$_155 = 1
   c99: x$_156 = 1 -> d2_4 - d2_8 >= 1
   c100: x$_157 = 1 -> d2_8 - d2_4 >= 1
   c101: x$_156 + x$_157 = 1
   c102: x$_158 = 1 -> d2_4 - d2_9 >= 1
   c103: x$_159 = 1 -> d2_9 - d2_4 >= 1
   c104: x$_158 + x$_159 = 1
   c105: x$_160 = 1 -> d2_5 - d2_6 >= 1
   c106: x$_161 = 1 -> d2_6 - d2_5 >= 1
   c107: x$_160 + x$_161 = 1
   c108: x$_162 = 1 -> d2_5 - d2_7 >= 1
   c109: x$_163 = 1 -> d2_7 - d2_5 >= 1
   c110: x$_162 + x$_163 = 1
   c111: x$_164 = 1 -> d2_5 - d2_8 >= 1
   c112: x$_165 = 1 -> d2_8 - d2_5 >= 1
   c113: x$_164 + x$_165 = 1
   c114: x$_166 = 1 -> d2_5 - d2_9 >= 1
   c115: x$_167 = 1 -> d2_9 - d2_5 >= 1
   c116: x$_166 + x$_167 = 1
   c117: x$_168 = 1 -> d2_6 - d2_7 >= 1
   c118: x$_169 = 1 -> d2_7 - d2_6 >= 1
   c119: x$_168 + x$_169 = 1
   c120: x$_170 = 1 -> d2_6 - d2_8 >= 1
   c121: x$_171 = 1 -> d2_8 - d2_6 >= 1
   c122: x$_170 + x$_171 = 1
   c123: x$_172 = 1 -> d2_6 - d2_9 >= 1
   c124: x$_173 = 1 -> d2_9 - d2_6 >= 1
   c125: x$_172 + x$_173 = 1
   c126: x$_174 = 1 -> d2_7 - d2_8 >= 1
   c127: x$_175 = 1 -> d2_8 - d2_7 >= 1
   c128: x$_174 + x$_175 = 1
   c129: x$_176 = 1 -> d2_7 - d2_9 >= 1
   c130: x$_177 = 1 -> d2_9 - d2_7 >= 1
   c131: x$_176 + x$_177 = 1
   c132: x$_178 = 1 -> d2_8 - d2_9 >= 1
   c133: x$_179 = 1 -> d2_9 - d2_8 >= 1
   c134: x$_178 + x$_179 = 1

   d0: y_0 - d1_0 = 0
   d1: y_1 - d1_1 = 1
   d2: y_2 - d1_2 = 2
   d3: y_3 - d1_3 = 3
   d4: y_4 - d1_4 = 4
   d5: y_5 - d1_5 = 5
   d6: y_6 - d1_6 = 6
   d7: y_7 - d1_7 = 7
   d8: y_8 - d1_8 = 8
   d9: y_9 - d1_9 = 9

   e0: x$_180 = 1 -> d1_0 - d1_1 >= 1
   e1: x$_181 = 1 -> d1_1 - d1_0 >= 1
   e2: x$_180 + x$_181 = 1
   e3: x$_182 = 1 -> d1_0 - d1_2 >= 1
   e4: x$_183 = 1 -> d1_2 - d1_0 >= 1
   e5: x$_182 + x$_183 = 1
   e6: x$_184 = 1 -> d1_0 - d1_3 >= 1
   e7: x$_185 = 1 -> d1_3 - d1_0 >= 1
   e8: x$_184 + x$_185 = 1
   e9: x$_186 = 1 -> d1_0 - d1_4 >= 1
   e10: x$_187 = 1 -> d1_4 - d1_0 >= 1
   e11: x$_186 + x$_187 = 1
   e12: x$_188 = 1 -> d1_0 - d1_5 >= 1
   e13: x$_189 = 1 -> d1_5 - d1_0 >= 1
   e14: x$_188 + x$_189 = 1
   e15: x$_190 = 1 -> d1_0 - d1_6 >= 1
   e16: x$_191 = 1 -> d1_6 - d1_0 >= 1
   e17: x$_190 + x$_191 = 1
   e18: x$_192 = 1 -> d1_0 - d1_7 >= 1
   e19: x$_193 = 1 -> d1_7 - d1_0 >= 1
   e20: x$_192 + x$_193 = 1
   e21: x$_194 = 1 -> d1_0 - d1_8 >= 1
   e22: x$_195 = 1 -> d1_8 - d1_0 >= 1
   e23: x$_194 + x$_195 = 1
   e24: x$_196 = 1 -> d1_0 - d1_9 >= 1
   e25: x$_197 = 1 -> d1_9 - d1_0 >= 1
   e26: x$_196 + x$_197 = 1
   e27: x$_198 = 1 -> d1_1 - d1_2 >= 1
   e28: x$_199 = 1 -> d1_2 - d1_1 >= 1
   e29: x$_198 + x$_199 = 1
   e30: x$_200 = 1 -> d1_1 - d1_3 >= 1
   e31: x$_201 = 1 -> d1_3 - d1_1 >= 1
   e32: x$_200 + x$_201 = 1
   e33: x$_202 = 1 -> d1_1 - d1_4 >= 1
   e34: x$_203 = 1 -> d1_4 - d1_1 >= 1
   e35: x$_202 + x$_203 = 1
   e36: x$_204 = 1 -> d1_1 - d1_5 >= 1
   e37: x$_205 = 1 -> d1_5 - d1_1 >= 1
   e38: x$_204 + x$_205 = 1
   e39: x$_206 = 1 -> d1_1 - d1_6 >= 1
   e40: x$_207 = 1 -> d1_6 - d1_1 >= 1
   e41: x$_206 + x$_207 = 1
   e42: x$_208 = 1 -> d1_1 - d1_7 >= 1
   e43: x$_209 = 1 -> d1_7 - d1_1 >= 1
   e44: x$_208 + x$_209 = 1
   e45: x$_210 = 1 -> d1_1 - d1_8 >= 1
   e46: x$_211 = 1 -> d1_8 - d1_1 >= 1
   e47: x$_210 + x$_211 = 1
   e48: x$_212 = 1 -> d1_1 - d1_9 >= 1
   e49: x$_213 = 1 -> d1_9 - d1_1 >= 1
   e50: x$_212 + x$_213 = 1
   e51: x$_214 = 1 -> d1_2 - d1_3 >= 1
   e52: x$_215 = 1 -> d1_3 - d1_2 >= 1
   e53: x$_214 + x$_215 = 1
   e54: x$_216 = 1 -> d1_2 - d1_4 >= 1
   e55: x$_217 = 1 -> d1_4 - d1_2 >= 1
   e56: x$_216 + x$_217 = 1
   e57: x$_218 = 1 -> d1_2 - d1_5 >= 1
   e58: x$_219 = 1 -> d1_5 - d1_2 >= 1
   e59: x$_218 + x$_219 = 1
   e60: x$_220 = 1 -> d1_2 - d1_6 >= 1
   e61: x$_221 = 1 -> d1_6 - d1_2 >= 1
   e62: x$_220 + x$_221 = 1
   e63: x$_222 = 1 -> d1_2 - d1_7 >= 1
   e64: x$_223 = 1 -> d1_7 - d1_2 >= 1
   e65: x$_222 + x$_223 = 1
   e66: x$_224 = 1 -> d1_2 - d1_8 >= 1
   e67: x$_225 = 1 -> d1_8 - d1_2 >= 1
   e68: x$_224 + x$_225 = 1
   e69: x$_226 = 1 -> d1_2 - d1_9 >= 1
   e70: x$_227 = 1 -> d1_9 - d1_2 >= 1
   e71: x$_226 + x$_227 = 1
   e72: x$_228 = 1 -> d1_3 - d1_4 >= 1
   e73: x$_229 = 1 -> d1_4 - d1_3 >= 1
   e74: x$_228 + x$_229 = 1
   e75: x$_230 = 1 -> d1_3 - d1_5 >= 1
   e76: x$_231 = 1 -> d1_5 - d1_3 >= 1
   e77: x$_230 + x$_231 = 1
   e78: x$_232 = 1 -> d1_3 - d1_6 >= 1
   e79: x$_233 = 1 -> d1_6 - d1_3 >= 1
   e80: x$_232 + x$_233 = 1
   e81: x$_234 = 1 -> d1_3 - d1_7 >= 1
   e82: x$_235 = 1 -> d1_7 - d1_3 >= 1
   e83: x$_234 + x$_235 = 1
   e84: x$_236 = 1 -> d1_3 - d1_8 >= 1
   e85: x$_237 = 1 -> d1_8 - d1_3 >= 1
   e86: x$_236 + x$_237 = 1
   e87: x$_238 = 1 -> d1_3 - d1_9 >= 1
   e88: x$_239 = 1 -> d1_9 - d1_3 >= 1
   e89: x$_238 + x$_239 = 1
   e90: x$_240 = 1 -> d1_4 - d1_5 >= 1
   e91: x$_241 = 1 -> d1_5 - d1_4 >= 1
   e92: x$_240 + x$_241 = 1
   e93: x$_242 = 1 -> d1_4 - d1_6 >= 1
   e94: x$_243 = 1 -> d1_6 - d1_4 >= 1
   e95: x$_242 + x$_243 = 1
   e96: x$_244 = 1 -> d1_4 - d1_7 >= 1
   e97: x$_245 = 1 -> d1_7 - d1_4 >= 1
   e98: x$_244 + x$_245 = 1
   e99: x$_246 = 1 -> d1_4 - d1_8 >= 1
   e100: x$_247 = 1 -> d1_8 - d1_4 >= 1
   e101: x$_246 + x$_247 = 1
   e102: x$_248 = 1 -> d1_4 - d1_9 >= 1
   e103: x$_249 = 1 -> d1_9 - d1_4 >= 1
   e104: x$_248 + x$_249 = 1
   e105: x$_250 = 1 -> d1_5 - d1_6 >= 1
   e106: x$_251 = 1 -> d1_6 - d1_5 >= 1
   e107: x$_250 + x$_251 = 1
   e108: x$_252 = 1 -> d1_5 - d1_7 >= 1
   e109: x$_253 = 1 -> d1_7 - d1_5 >= 1
   e110: x$_252 + x$_253 = 1
   e111: x$_254 = 1 -> d1_5 - d1_8 >= 1
   e112: x$_255 = 1 -> d1_8 - d1_5 >= 1
   e113: x$_254 + x$_255 = 1
   e114: x$_256 = 1 -> d1_5 - d1_9 >= 1
   e115: x$_257 = 1 -> d1_9 - d1_5 >= 1
   e116: x$_256 + x$_257 = 1
   e117: x$_258 = 1 -> d1_6 - d1_7 >= 1
   e118: x$_259 = 1 -> d1_7 - d1_6 >= 1
   e119: x$_258 + x$_259 = 1
   e120: x$_260 = 1 -> d1_6 - d1_8 >= 1
   e121: x$_261 = 1 -> d1_8 - d1_6 >= 1
   e122: x$_260 + x$_261 = 1
   e123: x$_262 = 1 -> d1_6 - d1_9 >= 1
   e124: x$_263 = 1 -> d1_9 - d1_6 >= 1
   e125: x$_262 + x$_263 = 1
   e126: x$_264 = 1 -> d1_7 - d1_8 >= 1
   e127: x$_265 = 1 -> d1_8 - d1_7 >= 1
   e128: x$_264 + x$_265 = 1
   e129: x$_266 = 1 -> d1_7 - d1_9 >= 1
   e130: x$_267 = 1 -> d1_9 - d1_7 >= 1
   e131: x$_266 + x$_267 = 1
   e132: x$_268 = 1 -> d1_8 - d1_9 >= 1
   e133: x$_269 = 1 -> d1_9 - d1_8 >= 1
   e134: x$_268 + x$_269 = 1

Bounds

   d1_0 >= -1000000
   d1_1 >= -1000000
   d1_2 >= -1000000
   d1_3 >= -1000000
   d1_4 >= -1000000
   d1_5 >= -1000000
   d1_6 >= -1000000
   d1_7 >= -1000000
   d1_8 >= -1000000
   d1_9 >= -1000000
   y_0 <= 9
   y_1 <= 9
   y_2 <= 9
   y_3 <= 9
   y_4 <= 9
   y_5 <= 9
   y_6 <= 9
   y_7 <= 9
   y_8 <= 9
   y_9 <= 9

Binary

x$_0 x$_1 x$_2 x$_3 x$_4 x$_5 x$_6 x$_7 x$_8 x$_9 x$_10 x$_11 x$_12 x$_13 x$_14 x$_15 x$_16 x$_17 x$_18 x$_19 x$_20 x$_21 x$_22 x$_23 x$_24 x$_25 x$_26 x$_27 x$_28 x$_29 x$_30 x$_31 x$_32 x$_33 x$_34 x$_35 x$_36 x$_37 x$_38 x$_39 x$_40 x$_41 x$_42 x$_43 x$_44 x$_45 x$_46 x$_47 x$_48 x$_49 x$_50 x$_51 x$_52 x$_53 x$_54 x$_55 x$_56 x$_57 x$_58 x$_59 x$_60 x$_61 x$_62 x$_63 x$_64 x$_65 x$_66 x$_67 x$_68 x$_69 x$_70 x$_71 x$_72 x$_73 x$_74 x$_75 x$_76 x$_77 x$_78 x$_79 x$_80 x$_81 x$_82 x$_83 x$_84 x$_85 x$_86 x$_87 x$_88 x$_89 x$_90 x$_91 x$_92 x$_93 x$_94 x$_95 x$_96 x$_97 x$_98 x$_99 x$_100 x$_101 x$_102 x$_103 x$_104 x$_105 x$_106 x$_107 x$_108 x$_109 x$_110 x$_111 x$_112 x$_113 x$_114 x$_115 x$_116 x$_117 x$_118 x$_119 x$_120 x$_121 x$_122 x$_123 x$_124 x$_125 x$_126 x$_127 x$_128 x$_129 x$_130 x$_131 x$_132 x$_133 x$_134 x$_135 x$_136 x$_137 x$_138 x$_139 x$_140 x$_141 x$_142 x$_143 x$_144 x$_145 x$_146 x$_147 x$_148 x$_149 x$_150 x$_151 x$_152 x$_153 x$_154 x$_155 x$_156 x$_157 x$_158 x$_159 x$_160 x$_161 x$_162 x$_163 x$_164 x$_165 x$_166 x$_167 x$_168 x$_169 x$_170 x$_171 x$_172 x$_173 x$_174 x$_175 x$_176 x$_177 x$_178 x$_179 x$_180 x$_181 x$_182 x$_183 x$_184 x$_185 x$_186 x$_187 x$_188 x$_189 x$_190 x$_191 x$_192 x$_193 x$_194 x$_195 x$_196 x$_197 x$_198 x$_199 x$_200 x$_201 x$_202 x$_203 x$_204 x$_205 x$_206 x$_207 x$_208 x$_209 x$_210 x$_211 x$_212 x$_213 x$_214 x$_215 x$_216 x$_217 x$_218 x$_219 x$_220 x$_221 x$_222 x$_223 x$_224 x$_225 x$_226 x$_227 x$_228 x$_229 x$_230 x$_231 x$_232 x$_233 x$_234 x$_235 x$_236 x$_237 x$_238 x$_239 x$_240 x$_241 x$_242 x$_243 x$_244 x$_245 x$_246 x$_247 x$_248 x$_249 x$_250 x$_251 x$_252 x$_253 x$_254 x$_255 x$_256 x$_257 x$_258 x$_259 x$_260 x$_261 x$_262 x$_263 x$_264 x$_265 x$_266 x$_267 x$_268 x$_269
General

y_0 y_1 y_2 y_3 y_4 y_5 y_6 y_7 y_8 y_9 d2_0 d2_1 d2_2 d2_3 d2_4 d2_5 d2_6 d2_7 d2_8 d2_9 d1_0 d1_1 d1_2 d1_3 d1_4 d1_5 d1_6 d1_7 d1_8 d1_9

End


